1989 1872 10 0 1439
1273 697 3 109 213
1758 2057 4 991 1044
2342 1232 2 789 793
175 1214 4 1201 1297
1526 1474 2 125 137
715 1603 4 732 778
1835 384 4 786 823
2086 1953 3 301 335
1323 808 1 1365 1419
415 1566 3 780 891
